5210
1500000
999238
999238
999238
999238
999238
999238
999238
999238
999238
999238
999238
999238
999238
999238
999238
999238
998829
998829
998829
998829
998829
998829
998829
998829
998829
998829
998829
998829
998829
998829
998829
998321
998321
998321
998321
998321
998321
998321
998321
998321
998321
998321
998321
998321
998321
998321
998321
998321
998321
998321
998321
997857
997857
997857
997857
997857
997857
997857
997857
997857
997857
997857
997857
997857
997857
997857
997857
997857
997857
997275
996670
996670
996670
996670
996670
996670
996670
996670
996670
996670
996670
996670
996670
996670
996670
996670
996670
996670
996670
996670
995438
995438
995438
995438
995215
995215
995215
995215
995215
995215
995215
995215
995215
995215
995215
995215
995215
995215
994225
994225
994225
994225
994225
994225
994225
994225
994225
994225
994225
994225
994225
994225
994225
994225
994225
994225
992193
992193
992193
992193
992193
992193
992193
992193
992193
992193
992193
992193
992193
992193
992193
992193
992193
992193
992193
990841
990841
990841
990841
990841
990841
990841
984073
984073
984073
984073
984073
984073
984073
984073
984073
983242
983242
983242
983242
983242
983242
983242
983242
983242
983242
983242
983242
983242
983242
983242
983242
983242
983183
983183
981046
981046
981046
981046
981046
981046
981046
981046
981046
981046
981046
981046
981046
980450
980450
980450
980450
980450
980450
980450
980450
980450
980450
980450
980450
980450
979882
979450
979450
979450
979450
979450
979450
979450
979450
979450
979450
979450
979450
979432
979432
979432
979432
979432
979432
979432
979432
977531
976189
976189
976189
976189
976189
976189
976189
976189
976189
976189
976189
976189
976189
976189
976189
976189
976189
973328
973328
973161
973161
973161
973161
973161
973161
973161
973161
973161
973161
973161
973161
973161
973161
973161
973161
973161
973139
973139
973139
973139
973139
973139
973139
973139
973139
973001
973001
973001
973001
973001
973001
972882
972882
969226
969226
969226
968779
968779
968779
968779
968779
968779
968779
968779
967632
967632
967632
967632
967632
967632
967632
967632
967632
967632
966275
966275
966275
966275
966275
966275
966275
964717
964717
963605
963605
963605
963605
963605
963605
963605
963162
963162
963162
963162
963162
963162
963162
963162
963162
963162
963162
963162
963162
963162
963162
962148
962148
962148
962148
962148
962148
962148
962148
962148
962148
962148
962148
955649
955649
955649
955649
955649
955649
955649
955649
955649
955649
955649
955649
955649
955649
955649
955649
955649
955649
955649
955649
949158
949158
949158
949158
949158
949158
949158
949158
949158
949158
949158
949158
949158
949158
949158
949158
949158
949158
949158
945016
945016
945016
945016
941417
941417
941417
941417
941417
941417
941417
941417
941417
941417
939209
939209
939209
939209
939209
939209
939209
939209
939209
939209
939209
939209
939209
939209
939209
939209
939209
939209
939209
938611
938611
938611
938611
938611
938611
938611
938611
938611
936118
936118
936118
936118
936118
936118
935545
935545
935545
935545
935545
935545
935545
935476
935476
935476
935476
935476
935476
935476
935476
935476
935476
935476
935476
935476
935476
935428
935428
935428
935428
935428
935428
935428
935428
935428
935428
935428
935428
929668
929668
929668
929668
929668
929668
921122
921122
921122
921122
921122
921122
921122
921122
921122
919519
919519
919519
919519
919519
919519
919519
919519
919519
919519
919519
917013
917013
917013
917013
917013
917013
917013
917013
917013
917013
916933
916933
916933
916933
916933
916933
916933
916933
916933
916933
916933
916933
916933
916933
915444
915444
915444
915444
909557
909557
909557
909557
909557
909557
909557
909557
909557
909557
909557
909557
909557
909557
909557
908762
908762
908762
908762
908762
908762
908762
908762
908762
908762
908762
908762
908762
908762
908762
907706
907706
907706
907706
907706
907628
907628
907628
907628
907628
907628
907628
907628
907628
907628
907628
907628
907628
907628
906159
906159
906159
906159
906159
906159
906159
906159
906159
906159
906159
906159
904503
904503
904503
904503
904503
904503
904503
904503
904503
904503
904503
904503
904503
904503
904503
904503
904503
904503
902563
898070
898070
898070
898070
898070
898070
898070
898070
898070
898070
898070
898070
898070
898070
898070
898070
898070
898070
898070
898070
897494
897494
897494
897494
894067
894067
894067
893820
893820
893820
893820
888656
888656
888656
888656
888656
888656
888656
888656
888656
887325
887325
887325
887325
887325
887325
887325
887325
887325
887325
887325
887325
887325
887325
887325
887325
887309
887309
887309
887309
887309
887309
887309
887309
887309
887309
887309
887309
887309
887309
886952
886952
886952
886952
886952
886952
886952
886952
886952
886952
886952
886952
886952
886952
886952
886952
886952
886725
886725
884628
884628
881680
881680
881680
881680
881680
881680
881680
878759
878759
878759
878759
878759
878759
878759
878759
878759
878759
878759
878759
878759
878043
878043
878043
878043
878043
878043
878043
878043
878043
878043
878043
878043
878043
878043
878043
878043
878043
878043
876036
876036
876036
876036
876036
876036
876036
873301
873301
873301
873301
873301
873301
873301
873301
872075
872075
872075
872075
870813
870544
870544
870544
870544
870544
870544
870544
870544
870544
870063
870063
870063
870063
870063
870063
870063
870063
870063
870063
870063
870063
870063
869201
869201
869201
869201
869201
869201
869201
869201
869201
869201
869201
869201
869201
869201
869201
869201
869201
868482
868482
868482
866804
866804
866804
865907
865907
865907
865907
865907
865907
865907
865907
865907
865907
865907
865907
865907
865907
865907
865907
865907
865907
864178
864178
864178
864178
863386
863386
863386
863386
863386
863386
863386
863386
862596
862596
862596
862596
862596
860602
860602
860602
860602
860602
860602
860602
860602
860602
860602
860602
860581
860581
860581
860581
860581
860581
860581
860581
860581
860581
860581
860581
860581
860375
860375
860375
860375
860375
860375
860375
860375
859850
859850
859850
859850
859850
859850
859850
859850
859850
858628
858628
858628
858628
858628
858628
858628
858628
858628
858628
858628
858628
858628
858628
858628
858628
858628
854608
854608
854608
854608
854608
854608
854608
854608
854608
854608
854608
854608
853224
853224
853224
853224
853224
853224
844632
844632
844632
844632
844632
844632
844632
844632
844632
844632
844632
844632
844632
844632
844632
843923
843923
843923
843923
843923
843923
843923
843923
843923
843923
843923
843923
843923
843923
843923
843923
843923
843923
841660
841660
841660
841660
841660
841660
841660
841660
841660
841660
841660
841660
841364
841364
841364
841364
841364
841364
841364
841364
839905
839905
839905
839905
839905
839905
839661
839661
839661
839661
839661
839661
839661
835203
835203
835203
835203
835203
835203
835203
835203
834024
834024
834024
834024
834024
834024
834024
834024
834024
834024
834024
834024
834024
834024
834024
834024
834024
834024
831950
831950
831950
831950
831950
831950
831950
831950
831867
831867
831867
831867
831867
831867
831867
831699
831699
831699
831699
831699
831699
831699
831699
829107
829107
829107
829107
829107
829107
829107
829107
829107
829107
829107
829107
829107
829107
829107
829107
829107
829107
829107
829107
827002
827002
827002
827002
827002
827002
827002
827002
827002
827002
827002
827002
827002
827002
827002
827002
827002
824367
824367
824367
824367
824367
824367
824367
824367
824367
824367
824367
824367
824367
824367
822284
822284
822284
822284
822284
819149
819149
819149
819149
819149
819149
819149
819149
819149
819149
819149
819149
819149
816316
816316
816316
816316
816316
816316
815519
815519
815519
815519
815519
815519
815519
815519
815519
815519
815519
815109
815109
815109
815109
815109
815109
815109
815109
815109
815109
815109
815109
815109
815109
815109
815109
815109
815109
815109
814139
814139
814139
814139
814139
814139
807298
807298
807298
807298
807298
807298
807298
807298
807298
807298
807298
807298
807298
807298
807298
805890
805890
805890
805890
805890
805890
805890
799959
799959
799959
799959
799959
799959
799959
799959
799959
799959
799959
799959
799959
799959
799959
799959
799959
799959
799824
799824
799824
799824
799824
799824
799824
799824
799824
799824
799824
799824
799824
799824
797927
797927
797927
797927
797927
797927
797927
797927
797927
797927
797927
797927
797927
796145
796145
796145
796145
796145
796145
796145
796145
796145
796145
796145
796145
794223
788512
788512
788512
788512
785890
785890
785890
785890
785890
785890
785890
783006
783006
783006
783006
783006
783006
783006
783006
783006
783006
783006
783006
783006
783006
781911
781911
781911
779042
779042
779042
779042
779042
779042
779042
779042
779042
779042
779042
779042
779042
779042
779042
777678
777678
777678
777678
777678
777678
777678
777678
774849
774849
774849
774849
774849
774849
774849
774849
774849
774849
774849
774849
774849
774849
774849
774849
774849
774849
774462
774462
774462
774462
774462
774462
774462
774462
774462
774462
774462
774462
774462
774462
774462
774462
774462
774462
774462
774462
774004
774004
774004
774004
774004
774004
774004
773984
773984
773984
773984
773984
773984
773984
773984
773984
773984
773984
773984
773984
773984
773984
773984
773984
773287
773287
773287
773287
773287
773287
773287
773287
767362
767362
767362
767362
767362
767362
767362
767362
766199
766199
766199
760910
760910
760910
760910
760910
760910
760910
760910
760910
760910
760910
760350
760350
760350
759140
759140
759140
759140
759140
759140
759140
759140
759140
759140
759140
759140
759140
759140
759140
759140
759140
757853
757853
755937
755937
755937
755937
755937
755937
755937
755937
755937
755937
755937
755937
755937
755937
755937
755937
755937
755937
755421
755421
755421
755421
755421
755421
755421
755421
752803
752803
752803
752803
752803
752803
752803
752803
752803
752803
752803
752803
752803
752803
749959
749959
749959
749959
749959
749959
749959
749959
749959
749959
747512
747512
747512
747512
747512
747512
747512
747512
747512
747512
745703
745703
745703
745703
745703
745703
745703
745703
745703
745703
745703
745703
745703
745703
745703
745703
742454
742454
742454
742454
742454
742454
742454
742454
742454
742454
742454
742454
742454
742454
742454
740501
740501
740501
740501
740501
740501
740501
740501
740501
740501
740501
740501
740501
740374
740374
740374
740374
740374
740374
740374
740374
740374
740374
740374
740374
740265
740265
740265
740265
740265
740265
740265
740265
740265
740265
740265
740265
740265
740265
740265
740265
740265
740265
737826
737826
737826
737826
737826
737826
736812
736812
736812
736812
736812
735737
735737
735737
735737
735737
735737
735737
735346
735346
735346
735346
735346
735346
735346
735346
735346
735346
735346
735346
735346
735346
735346
732946
732946
732946
732946
732946
732946
732797
732797
732797
732797
732797
732797
731801
731801
731801
731801
729636
729636
729636
729636
729636
729636
729636
729636
729636
729636
729636
729636
729636
728978
728978
728978
728978
728978
728978
728978
728978
728978
728978
728978
728978
728978
728978
728978
728978
728978
728978
728978
728955
728955
728955
728955
728955
728955
728955
728955
728955
728955
728955
728955
728955
728955
728955
728955
728955
728955
728955
728955
728322
728322
728322
728322
728322
728322
728322
728322
728322
728322
728322
728322
728322
728322
728322
728322
728322
728322
728322
728322
726955
726955
724035
724035
724035
724035
724035
724035
724035
724035
724035
724035
724035
724035
724035
724035
724035
724035
724035
724035
724035
724035
721712
721712
721712
721712
721712
721712
721712
721712
721712
721712
721712
721712
721712
721712
721712
717066
717066
717066
717066
717066
717066
716271
716271
716271
716271
712967
712967
712967
712967
712967
712967
712967
712967
712967
712967
712967
712967
712967
712967
709192
709192
709192
709192
709192
709192
709192
709192
709192
709192
702932
702932
702932
702932
702932
702932
702932
702932
702932
702932
702932
702932
702817
701295
701295
701295
701295
701295
700703
700703
700703
700703
700703
700703
700703
700703
700703
700703
700703
700703
700703
700703
700703
700703
700703
700703
700703
700703
699799
699799
699799
699799
699799
699799
699799
699799
699799
699799
699799
699799
699799
699799
698619
698619
698619
698619
698619
698619
698619
698619
698619
698619
698619
698619
698619
694775
694775
694775
694775
694775
694775
694775
694775
694775
694775
694775
694775
694775
694775
694775
694775
694775
694775
694775
694775
693943
693943
693943
693943
693943
693943
693943
693943
693943
693943
693943
693943
693153
693153
693153
693153
693153
693153
692509
692509
692509
692509
692509
692509
692509
692509
692509
692509
692509
692509
692509
692509
692509
692509
691325
691325
691325
691325
691325
691325
691325
691325
691325
691325
686403
684160
684160
684160
684160
684160
684160
684160
684160
684160
684160
684160
674833
674833
674833
674833
674833
674833
674833
674833
674833
674833
673007
673007
673007
673007
673007
673007
673007
672182
672182
672182
672182
672182
672182
672182
672182
672182
672182
672182
672182
672182
672182
672182
672182
669923
669923
669923
669923
669923
669923
669923
669923
669923
669923
669923
669923
669923
669923
667526
667526
667526
667526
667526
667526
667526
667526
667046
667046
667046
667046
667046
667046
667046
667046
667046
667046
667046
667046
667046
666290
666290
659719
659719
659719
659719
659719
659719
659719
659719
659719
659719
659719
659719
659719
659719
655044
655044
655044
655044
655044
655044
655044
655044
655044
654623
654623
654623
654623
654623
654623
654623
654623
654623
654623
654623
654623
654623
654623
654623
653102
653102
653102
653102
653102
653102
653102
653102
653102
653102
653102
653102
653102
653102
652341
652341
652341
652341
652341
652341
652341
652333
652333
645801
644872
643855
643855
643855
643855
643855
643855
643855
643855
643855
643705
643705
643131
643131
643131
640333
640333
640333
640333
639068
639068
639068
639068
639068
639068
639068
639068
639068
639068
639068
639068
639068
639068
639068
639068
639068
639068
639068
639068
638092
638092
638092
638092
638092
638092
638092
638092
638092
638092
638092
637803
637803
637803
637803
637803
637803
637803
637803
637803
637803
637803
637803
636101
636101
636101
636101
636101
636101
636101
636101
636101
636101
636101
636101
636101
636101
636101
636101
636101
636101
635728
632777
632777
632777
632777
632777
632777
632777
632777
632777
632777
632777
632777
632777
632777
632777
632777
632777
632777
632777
632777
631878
631878
631878
631878
631878
631878
631878
631878
631878
631878
631878
631878
631878
631878
631878
631878
631878
631878
631878
631878
630183
630183
630183
630183
630183
630183
629789
629789
629789
629789
629789
629789
629789
629789
629789
629789
629789
629789
629789
629789
629789
629759
629759
629759
629759
629759
629759
629759
629759
629759
629759
629759
629759
629759
627294
627294
627294
627294
626965
626965
625783
625783
625783
625783
625783
625783
625783
625783
625783
625783
625783
625783
625783
625783
625783
625272
625272
625272
625272
625272
625272
625272
625272
625272
625272
623789
623789
623789
623789
623789
623789
623789
623789
623789
623789
623789
623789
623730
623730
623730
623730
623730
623730
623730
623730
623730
623730
623730
623730
623730
620999
620999
620999
620999
620999
620999
620999
620999
620999
620999
620999
620999
620999
620999
620999
620999
620999
620999
620999
620999
614889
614889
614889
614889
614889
614889
614889
614889
614889
614889
614889
614889
614889
612985
612985
612985
612985
612118
612118
612118
612118
612118
612118
612118
612118
612118
612118
612118
609477
609477
609477
609477
609477
609477
609477
609477
609477
609477
609477
609477
609477
602352
595815
595815
595815
595815
595815
595815
595815
595815
595815
595815
595815
595815
595815
595815
595815
595815
595815
595815
595815
595815
595740
595740
595740
595740
595740
595740
595740
595740
595740
595740
595740
595740
595740
593457
593457
592268
592268
592268
592268
592268
592268
592268
592268
592268
592268
592268
592268
592268
590242
590242
590242
590242
590242
590242
590242
590242
590242
590242
590242
590242
590242
590242
590242
590242
590242
590242
590242
590242
582937
582937
582937
582937
582937
582937
582937
582937
582937
582937
582937
582937
582937
582937
582937
582937
582937
582937
582937
582937
582133
582133
582133
582133
582133
581380
581380
581380
581380
581380
581380
581380
581380
581380
581380
581380
581380
581380
581380
581039
581039
576616
576616
576616
576616
576616
576616
576616
576616
576616
576616
575154
575154
575154
575154
575154
575154
575154
575154
575154
575154
575154
569722
569722
569722
569722
569722
569722
569722
569722
569722
569722
569722
569722
569722
569722
569722
568230
568230
568230
568230
568230
568230
568230
568230
568230
566536
566536
566536
566536
566536
566536
566536
566536
566536
566536
566536
566536
566536
566536
566536
566536
566536
566536
566536
563002
563002
563002
563002
563002
563002
563002
563002
563002
563002
563002
563002
563002
563002
563002
563002
563002
563002
563002
563002
561940
561940
561940
561940
561940
561940
561940
561940
561940
561940
561940
561940
561940
561940
561940
561940
561940
561940
557930
557930
557930
557930
557930
557930
557930
557930
557930
557930
557930
557930
557930
557930
557930
557930
557930
557930
555933
555933
555933
555933
555933
555933
555933
555933
553844
553844
553844
553844
553844
553844
553844
553844
553844
553844
553844
553844
553844
553844
553844
553844
553844
553844
553467
553198
553198
553198
553198
553198
553198
553198
553198
546788
546788
546788
546788
546788
546788
546788
546788
546788
546788
546788
546788
546788
546788
546788
546788
544351
544351
544351
544351
544351
544351
544351
544351
544351
544351
544351
544351
544351
543487
543487
543487
543487
540389
540389
540389
540389
540389
540389
540389
540389
540389
540389
540389
540389
540389
540023
540023
540023
540023
540023
540023
540023
540023
539364
539364
539364
539364
539364
539364
539364
539364
539364
539364
539364
539364
539364
539364
539364
535362
535362
535362
535362
535362
535362
535362
535362
535362
535362
535362
535362
535362
535362
535362
535362
528746
528746
521419
521419
521419
521419
521419
521419
521419
521419
521419
521419
521419
518247
518247
518247
518247
518247
518247
518247
518247
518247
518247
518247
518247
518247
518247
518247
518247
518247
518247
514465
514465
514465
514465
514465
514465
514465
514465
514465
514465
514465
514465
514465
514465
512820
512820
512820
512820
512820
512820
512820
512820
512820
512820
512820
512820
512820
512820
512820
512532
512532
512532
512532
512532
512532
512532
512532
512532
512532
512532
512532
512532
512532
512532
512532
512532
511492
511492
511492
511492
511492
511492
511492
511492
511492
511492
511492
511492
511492
511492
511492
511492
511492
511492
509673
509673
509673
509673
509673
509673
509673
509673
509673
509673
509673
509673
509673
509673
509673
509673
509673
509673
509673
508658
508658
508658
508658
508658
507462
507462
507462
507462
504370
504370
504370
504370
504370
504370
504370
504370
504370
504370
504370
504370
504370
504370
504370
504370
504370
504370
504370
504264
504264
504264
504264
504264
504264
504264
504264
504264
504264
504264
504264
504264
504264
504264
504264
503013
503013
503013
503013
503013
503013
503013
503013
503013
503013
503013
503013
503013
503013
503013
503013
502673
502673
502673
502673
502673
502673
502673
502673
502673
502673
502673
502673
502673
502673
502673
502673
502673
502673
502673
502673
499995
499995
499995
499995
499995
499449
499449
499449
499449
499449
495007
495007
495007
495007
495007
495007
495007
495007
495007
495007
495007
495007
495007
495007
494922
494922
494922
494922
494922
494922
494922
494922
494922
494922
494922
494922
494922
494922
492047
492047
486625
486625
486625
486625
486625
486625
486625
486625
486625
486625
486625
486625
486625
486120
486120
486120
486120
486120
481866
481866
481866
476037
476037
476037
476037
476037
476037
476037
476037
474531
474531
474531
474531
474531
474531
471334
471334
471334
471334
471334
471334
471334
471334
471334
471334
471334
471334
471334
471334
471334
471334
471334
469603
469603
469603
469603
469603
469603
469603
469603
469603
469603
469603
469460
469460
469460
469460
469460
469460
469460
469460
469460
469460
469460
469460
469460
469460
467246
467246
467246
467246
467246
467246
467246
467246
465774
465774
465774
465774
465774
465774
465774
465774
465774
465774
465774
465774
465774
465774
465774
465774
465774
465774
465774
464898
464898
464898
464898
464898
464898
464898
464898
464898
464898
464898
464898
464898
464898
464898
464898
464898
464898
463358
463358
463358
463358
463358
463358
463358
463358
463358
463358
463358
463358
463358
463358
463358
463358
463358
463358
463358
459206
459206
459206
459206
459206
459206
459206
457151
457151
457151
457151
457151
457151
457151
457151
457151
457151
457151
457151
457151
457151
457151
457151
457151
457151
457151
455487
455487
455487
455487
455487
455487
455487
455487
455487
455487
455487
455487
455487
455487
455487
455487
455487
455487
455487
455487
454339
452242
452242
452242
452242
452242
452242
452242
452242
452242
452242
452242
452242
452242
452242
452242
452242
452242
449952
449952
449952
449952
449952
449952
449952
449952
449952
442415
442415
442415
442415
442415
441801
441801
441801
441801
441801
441496
441496
441496
441496
441496
441496
441496
441496
441496
440392
440392
440392
440392
440392
440392
440392
440392
440392
440392
440392
440392
440392
440392
440392
437799
437799
437799
437799
437799
437799
437799
437799
437799
437799
437799
437799
437799
437799
437799
435146
435146
435146
435146
435146
435146
435146
435146
435146
435146
435146
431103
431103
431103
431103
431103
431103
431103
431103
431103
431103
431103
431103
431103
431103
431103
429200
429200
429200
429200
429200
429200
429200
429200
429200
429200
429200
429200
429200
429200
429200
429200
429200
429200
429200
429147
429147
427348
427348
427348
427348
427348
427348
427348
427348
427348
427348
427348
427348
427348
427348
425709
425709
425709
425709
425709
425709
425709
425709
425709
425709
425709
425709
425709
425709
423836
423836
423836
423836
423836
423836
423836
423836
423836
423836
423836
423836
423836
423187
423187
423187
423187
423187
423187
423187
423187
423187
423187
423187
423187
423187
422546
422546
422059
422059
416117
416117
416117
416117
416117
416117
416117
415992
415992
415558
415558
415558
415558
415558
415558
415558
415558
415558
415558
415558
415558
415558
415558
415558
415558
415558
413126
411092
411092
411092
411092
411092
411092
411092
411092
411092
411092
407039
407039
407039
407039
399040
399040
399040
399040
399040
399040
399040
399040
399040
399040
399040
399040
399040
399040
399040
399040
394982
394982
394982
394982
394982
394982
394982
394982
394982
394982
394982
394982
394982
394982
394982
394982
394982
394982
394982
394982
392426
392426
392426
392426
392426
392426
392426
392426
392426
392426
392426
392426
392426
392426
392426
391696
391696
391696
391696
391696
391696
391696
391696
391696
391696
391696
390658
390658
390658
390658
389389
389389
389389
389389
389389
389389
389389
386293
384626
384626
384626
384626
384626
383581
380909
380909
380909
380909
380909
380909
380909
380909
380909
380909
380909
380909
379323
379323
379323
379323
377944
377944
377944
377944
377944
377944
377944
377944
377944
377944
377944
377944
377944
377944
377944
376417
376417
376417
376417
376417
376417
376417
376417
376417
376417
376417
376417
376417
376417
376417
376417
373990
373990
373990
373123
373123
373123
370031
370031
370031
370031
370031
370031
370031
370031
370031
370031
370031
370031
370031
370031
370031
370031
370031
370031
370031
368395
368395
368395
368395
365269
365269
365269
365269
362521
362521
362521
362521
362521
362521
362521
362521
362521
362521
362521
357764
357764
357764
357764
357764
357764
357764
357764
357764
357764
357764
357764
357764
357764
355912
355912
355912
355912
355912
355912
355912
355912
351159
351159
351159
350703
350703
350703
350703
347413
347413
347413
347413
347413
347413
347413
347413
347413
347413
347413
347413
347413
345181
345181
345181
345181
345181
345181
345181
345181
345181
345181
345181
345181
341987
341987
341987
341987
336920
336920
336920
336920
336062
336062
336062
336062
336062
336062
336062
336062
336062
334993
334993
334993
334993
334993
334993
334993
334993
334993
334993
334993
334993
334993
334993
334993
334993
334993
334993
334993
334320
334320
334320
334320
334320
334320
334320
334320
334320
334320
334320
334320
330942
330942
330942
330942
330942
330942
330942
330942
330942
330942
330942
330942
330942
330942
330942
330942
330942
330942
330942
330942
330065
330065
330065
330065
330065
330065
330065
330065
330065
330065
330065
330065
330065
330065
330065
327976
327976
327976
327976
327976
327976
327976
327976
327976
327976
327976
327976
327976
327976
327252
327252
327216
327216
327216
327216
327216
327216
327216
325900
325900
325900
325900
325754
325754
325754
325754
325754
325754
325754
325754
325754
325754
325754
325754
325754
325754
325754
325754
324460
324460
324460
324460
316361
316361
315540
315540
313369
313369
313369
313369
313369
313369
313369
313369
313369
313369
313369
313369
313369
313369
313282
313282
313282
313282
312118
312118
312118
312118
312118
312118
312118
309834
309834
309834
309834
309834
309834
309834
309834
309834
309834
309834
309834
309834
309834
309834
309834
309294
309294
309294
309294
309294
309294
309294
309294
309294
309294
309294
307913
307913
307913
307913
307913
307913
307791
307791
307791
307791
307791
307791
307791
307791
307696
307696
307696
307696
307696
307696
307696
307696
307696
307696
307696
307696
307696
307696
307696
304496
304496
304496
304496
304496
304496
304496
304496
304496
304496
304496
304496
304496
304496
304496
304496
299363
299363
299363
299363
299363
299363
299363
299363
299363
299363
299363
299363
299363
296324
296324
296324
296032
296032
294478
294478
294478
291163
291163
291163
291163
291163
291163
291163
291163
291163
291163
291163
291163
291163
291163
289839
289839
289839
289839
289839
289839
289839
289839
289839
287057
287057
287057
287057
287057
287057
287057
287057
287057
287057
287057
287057
287057
287057
287057
287057
287057
287057
287057
287057
284463
284463
284463
284463
284463
284463
284463
281885
279310
279310
279310
278620
278620
278620
274793
274793
274793
274793
274793
274793
274793
274793
274793
274793
274787
274787
274787
274787
274787
274787
274787
274787
274787
274787
269876
269876
269859
269859
269859
269859
269859
269859
269859
269859
269859
269859
269859
269859
269859
269859
269358
269358
268062
268062
268062
268062
268062
268062
268062
268062
268062
268062
268062
268062
268062
262171
262171
262171
262171
262171
262171
262171
262171
262171
262171
260682
260682
260682
260682
260682
260682
260682
260682
260682
260682
260682
260682
260682
260682
260682
260682
259131
259131
259131
259131
259131
259131
258920
258920
258920
258920
258920
258920
258920
258920
258920
258920
258920
258920
258920
258920
258920
258920
258920
258920
258920
258920
257283
257283
257283
257283
257283
253866
253866
253866
253866
253866
251906
251000
251000
251000
250114
250114
250114
250114
250114
250114
250114
250114
250114
250114
250114
250114
250114
250114
250114
250114
250114
246072
246072
246072
246072
246072
246072
246072
246072
246072
246072
246072
246072
246072
246072
246072
244994
244994
244994
244994
244994
244994
244994
244994
244994
244994
244994
244994
244994
244994
244994
244994
244994
244994
244994
242100
242100
242100
242100
242100
242100
242100
242100
242100
242100
242100
242100
242100
242100
242100
242100
241791
241791
241791
241791
241791
241791
241791
241791
241791
227103
227103
227103
227103
227103
227103
227103
227103
227103
227103
227103
227103
227103
227103
227103
227103
227103
227103
227103
227103
226820
226820
226820
226820
226253
226253
226253
226253
226253
226253
226253
226253
226253
226253
226253
226253
225202
225202
225202
225202
225202
225202
225202
225202
225202
225202
223226
223226
223226
223226
223226
223226
223226
223226
223226
223226
223226
223226
223226
223226
223226
220683
220683
220683
220683
220683
220683
220683
220683
220683
220683
220683
220683
220683
220683
220683
220683
220683
220683
220683
220683
220082
220082
220082
220082
220082
220082
220082
220082
220082
220082
219899
219899
219899
218983
218983
218983
218983
218376
218376
218376
218376
218376
218376
218376
218376
218376
218376
218376
218376
218376
216998
216998
216998
216998
216998
216906
216906
216906
216906
216906
216369
216369
216369
216369
216369
216369
216369
216085
216085
216085
216085
216085
216085
216085
216085
216085
216085
216085
216085
213287
213287
213287
213287
213287
213287
213287
213287
213287
213287
213287
213287
213287
211934
211934
211934
211934
211934
211934
211934
211934
211934
211934
211466
211466
211466
211466
211466
211466
211466
211466
211052
211052
211052
211052
211052
211052
211052
211052
211052
211052
211052
211052
211052
211052
210763
210763
210763
210763
210763
210763
210763
210763
210763
210763
210763
210763
210763
210763
210763
210763
210763
210763
207259
207259
207259
207259
207259
207259
207259
207259
207259
207259
207259
207259
206200
204738
204738
204738
204738
204738
204738
204738
204738
204738
203490
203490
203490
203490
203490
203490
203490
203490
203490
203490
203490
203490
203490
203490
203490
200970
200970
200970
200970
200970
200970
200970
200970
200970
200970
200970
200970
200970
200970
200970
200970
200970
200529
200529
200529
200529
200103
200103
200103
200103
200103
200103
200103
200103
200103
200103
200103
200103
200103
200103
193938
193930
193930
193930
193930
193930
193930
193930
193930
193930
193930
193930
191532
191532
191532
191532
191380
191380
190652
187713
187713
187713
187713
187713
187713
187713
187713
187713
187713
187713
187713
187713
187713
187713
187713
187713
187713
186985
186985
186985
186985
186985
186985
186985
186985
183275
183275
183275
183275
183275
183275
183275
183275
183275
180725
180725
180725
180725
180725
180725
180725
180725
180725
180725
180725
180725
180725
180725
177473
177473
176899
176899
176899
176899
175820
175820
175820
175820
175820
175820
175820
175820
175820
174975
174975
174975
174896
174896
174896
174896
174780
174780
174780
174780
174780
174780
174780
174780
174780
174780
174780
174780
173076
173076
173076
173076
173076
173076
173076
173076
169197
169197
169197
168772
168772
168772
168772
168772
168772
168772
168772
168536
168536
168536
168536
168536
165027
165027
165027
165027
165027
165027
165027
165027
165027
165027
164099
164099
164099
164099
164099
164099
157253
157253
157253
157253
157253
157253
157253
157253
157253
155847
155847
155847
155847
155847
155847
155847
155847
153005
153005
153005
153005
152354
152354
152354
152354
152354
152354
152354
152354
152354
152354
152354
152354
152354
152354
152354
152354
152354
152066
152066
152066
152066
152066
152066
152066
152066
152066
152066
152066
152066
152066
152066
152066
152066
152066
152066
151159
151159
151159
151159
151159
151159
150860
150860
150860
150860
150860
150860
150860
150860
150860
147463
146458
146458
141656
141656
141656
141656
141656
141656
141656
141656
141656
141656
141656
141656
141656
141656
141656
141656
141582
141582
141582
141582
141582
141582
141582
141582
141582
141582
141582
141582
141582
141582
141582
141582
141582
141582
141582
137040
137040
137040
137040
137040
137040
137040
137040
137040
137040
137040
137040
137040
137040
136741
136741
136741
136741
136741
136741
136741
136741
136741
135302
135302
135302
135302
135302
135302
135069
135069
135069
135069
135069
135069
135069
133813
129243
129243
129243
129243
129243
129243
129243
129243
129243
129243
129243
129243
129243
129243
129243
129243
129243
129243
129243
126551
126551
126551
126551
126551
126551
126551
126551
126551
126551
126551
126551
126551
126551
126551
126551
126086
126086
126086
126086
126086
126086
126086
126086
126086
126086
126086
126086
115153
115153
115153
115153
115153
115153
115153
111321
111321
111321
111321
111321
111321
111321
111321
111321
111321
111321
111321
111321
111321
111321
111321
111321
111321
111312
111312
111312
111312
111312
111312
111312
111312
111312
109742
109742
109742
109742
109742
109742
109742
109742
109742
109742
109742
109742
109742
108874
108874
108874
108874
108874
108874
108874
108874
108874
108874
108874
108874
108874
108874
108874
108874
108874
108388
108388
108388
108388
108388
108388
108388
108388
108388
104432
104432
104432
104432
104432
104432
104432
104432
104432
104432
104432
104432
104432
104432
104432
104432
104432
103928
103928
103928
103928
103928
103928
103928
103928
103928
102482
102482
102482
102482
102482
102482
102482
102482
102482
102482
102482
102482
102482
102482
102482
102482
102482
102482
102482
102482
102199
102199
102199
102199
102199
102199
102199
102199
102199
102199
102199
101430
101430
101430
101430
101430
101430
101430
101430
101430
101430
101430
101430
101329
101329
101329
101329
101329
101329
101329
101329
101329
101329
101329
101329
101329
100527
100527
100527
100527
100527
100527
100527
100527
100527
100527
100527
100527
100527
100527
100527
100527
100527
93472
93472
93472
93472
93472
93472
93472
93472
91750
91750
91750
91750
91750
91750
91750
91750
91750
91750
91750
91750
91750
91011
91011
91011
91011
91011
91011
91011
91011
91011
91011
91011
91011
91011
91011
91011
91011
91011
89761
89761
89761
84644
84644
83794
83794
83794
83794
83794
83794
82450
82450
82450
82450
82450
82450
82450
82450
82450
82450
82450
82450
82450
82450
81140
81140
81140
81140
81140
81140
81140
81140
81140
81140
81140
81140
81140
81140
81140
81140
79402
79402
79402
79402
79402
79402
79402
79402
79402
79402
79402
78180
78180
78180
78180
78180
77307
77307
77307
77307
77307
77307
77307
77307
77307
77307
77307
77307
77307
77307
77307
77307
77307
77215
77215
77215
77215
77215
77215
77215
77215
77215
77215
75860
75860
75860
75860
73703
73703
73703
73703
73703
73703
73703
73703
73703
73703
73703
73703
73703
73703
70877
70877
70877
70877
70877
70877
70877
69302
69302
69302
69302
69302
69302
69302
69302
69302
69302
69302
69302
67299
67299
67299
67299
67299
67299
67299
67299
67299
67299
67299
67299
67299
67299
67299
67299
67299
67299
67299
67299
62175
62175
62175
62175
62175
62175
62175
62175
62175
62175
62175
61473
61473
61473
61473
61473
61473
61473
61473
61473
61473
61473
61473
57801
57801
57801
56144
56144
56144
56144
56144
56144
56144
55774
55774
55774
55774
55774
55774
55774
55774
55774
55774
55774
55774
55774
55774
55774
55774
55774
55774
55774
55774
50405
50405
50405
50405
50405
50405
50405
50405
50405
50405
46666
46666
46666
46666
46666
46666
46666
46666
46666
46666
46666
46666
46666
46666
46666
46666
46666
46666
46666
46527
46527
46527
46527
46527
46527
46527
46527
46527
46527
44451
42300
42300
42300
42300
42300
42300
42300
38979
38979
38979
38979
38979
38979
38979
38979
38979
38979
38979
38979
38979
36192
36192
36192
36192
36192
36192
36192
36192
36192
36192
36192
36192
36192
36192
36192
36192
36192
36192
36192
36192
30218
30218
30218
30218
30218
30218
30218
30218
30218
30218
30218
30218
30218
30218
30218
30218
30218
30117
30117
30117
30117
30117
30117
30117
28286
28286
28286
28286
28286
28286
28286
28286
28286
28286
28286
28286
28286
27768
27768
27768
27768
27768
27768
27768
27768
27768
27768
27768
27768
27768
27768
27768
27768
27768
27768
24354
24354
24354
24354
24354
24354
24354
24354
24354
24354
24354
24354
24354
24354
24354
24354
24354
24354
24354
24354
24337
24337
24337
24337
24337
24337
24337
24337
24337
24337
22852
22852
22852
22852
22852
22852
22852
22852
22852
22852
22852
22852
22852
22852
22852
22852
22852
20231
20231
20231
20231
20231
11783
11783
11783
11783
11783
11783
11231
11231
11231
11231
11231
11231
11231
11231
11231
11231
11231
11231
11231
11231
11231
11231
11231
11231
11231
10949
10949
10949
10949
10949
10949
10949
10949
10949
10949
10949
10949
10949
10949
10949
10949
10949
10949
